WARNING: for repeatability, setting FPU to use double precision
============================[ Problem Statistics ]=============================
|                                                                             |
|  Number of variables:            50                                         |
|  Number of clauses:             218                                         |
|  Parse time:                   0.00 s                                       |
|                                                                             |
============================[ Search Statistics ]==============================
| Conflicts |          ORIGINAL         |          LEARNT          | Progress |
|           |    Vars  Clauses Literals |    Limit  Clauses Lit/Cl |          |
===============================================================================
===============================================================================
restarts              : 1
conflicts             : 45             (32097 /sec)
decisions             : 48             (0.00 % random) (34237 /sec)
propagations          : 510            (363766 /sec)
conflict literals     : 148            (14.94 % deleted)
Memory used           : 20.00 MB
CPU time              : 0.001402 s

UNSATISFIABLE
